data/ILP/exact/instance006.lp
Minimize
obj: 10y_1 + 74y_2 + 24y_3 + 160y_4 + 110y_5 + 24y_6 + 162y_7 + 66y_8 + 12y_9 + 64y_10 + 32y_11 + 144y_12 + 88y_13 + 92y_14 + 160y_15 + 74y_16 + 6y_17 + 160y_18 + 33y_19 + 42y_20 + 62y_21 + 26y_22 + 88y_23 + 2y_24 + 25y_25 + 2y_26 + 42y_27 + 74y_28 + 162y_29 + 92y_30 + 160y_31 + 49y_32 + 23y_33 + 160y_34 + 88y_35 + 2y_36 + 18y_37 + 42y_38 + 160y_39 + 88y_40 + 144y_41 + 88y_42 + 2y_43 + 146y_44 + 26y_45 + 62y_46 + 42y_47 + 62y_48 + 2y_49 + 88y_50 + 146y_51 + 36y_52 + 52y_53 + 26y_54 + 2y_55 + 76y_56 + 190y_57 + 102y_58 + 146y_59 + 26y_60 + 66y_61 + 24y_62 + 2y_63 + 18y_64 + 52y_65 + 64y_66 + 18y_67 + 52y_68 + 62y_69 + 160y_70 + 62y_71 + 72y_72 + 72y_73 + 74y_74 + 92y_75 + 160y_76 + 88y_77 + 88y_78 + 146y_79 + 24y_80 + 2y_81 + 31y_82 + 18y_83 + 42y_84 + 6y_85 + 62y_86 + 36y_87 + 144y_88 + 18y_89 + 50y_90 + 52y_91 + 18y_92 + 74y_93 + 72y_94 + 23y_95 + 18y_96 + 52y_97 + 144y_98 + 25y_99 + 21y_100 + 92y_101 + 160y_102 + 74y_103 + 49y_104 + 76y_105 + 2y_106 + 72y_107 + 32y_108 + 18y_109 + 88y_110 + 26y_111 + 24y_112 + 18y_113 + 21y_114 + 24y_115 + 190y_116 + 50y_117 + 82y_118 + 33y_119 + 31y_120 + 2y_121 + 72y_122 + 76y_123 + 88y_124 + 18y_125 + 24y_126 + 2y_127 + 88y_128 + 72y_129 + 2y_130 + 102y_131 + 42y_132 + 2y_133 + 18y_134 + 52y_135 + 12y_136 + 42y_137 + 62y_138 + 26y_139 + 66y_140 + 24y_141 + 146y_142 + 76y_143 + 2y_144 + 26y_145 + 88y_146 + 146y_147 + 26y_148 + 24y_149 + 62y_150 + 82y_151 + 18y_152 + 72y_153 + 2y_154 + 72y_155 + 24y_156 + 10y_157 + 66y_158 + 160y_159 + 110y_160 + 74y_161 + 42y_162 + 2y_163 + 74y_164
Subject To
x_165 = 5
x_166 = 1
x_167 = 1
x_168 = 1
x_169 = 1
x_170 = 1
x_1 - 6y_1 <= 0
x_2 - 6y_2 <= 0
x_3 - 6y_3 <= 0
x_4 - 6y_4 <= 0
x_5 - 6y_5 <= 0
x_6 - 6y_6 <= 0
x_7 - 6y_7 <= 0
x_8 - 6y_8 <= 0
x_9 - 6y_9 <= 0
x_10 - 6y_10 <= 0
x_11 - 6y_11 <= 0
x_12 - 6y_12 <= 0
x_13 - 6y_13 <= 0
x_14 - 6y_14 <= 0
x_15 - 6y_15 <= 0
x_16 - 6y_16 <= 0
x_17 - 6y_17 <= 0
x_18 - 6y_18 <= 0
x_19 - 6y_19 <= 0
x_20 - 6y_20 <= 0
x_21 - 6y_21 <= 0
x_22 - 6y_22 <= 0
x_23 - 6y_23 <= 0
x_24 - 6y_24 <= 0
x_25 - 6y_25 <= 0
x_26 - 6y_26 <= 0
x_27 - 6y_27 <= 0
x_28 - 6y_28 <= 0
x_29 - 6y_29 <= 0
x_30 - 6y_30 <= 0
x_31 - 6y_31 <= 0
x_32 - 6y_32 <= 0
x_33 - 6y_33 <= 0
x_34 - 6y_34 <= 0
x_35 - 6y_35 <= 0
x_36 - 6y_36 <= 0
x_37 - 6y_37 <= 0
x_38 - 6y_38 <= 0
x_39 - 6y_39 <= 0
x_40 - 6y_40 <= 0
x_41 - 6y_41 <= 0
x_42 - 6y_42 <= 0
x_43 - 6y_43 <= 0
x_44 - 6y_44 <= 0
x_45 - 6y_45 <= 0
x_46 - 6y_46 <= 0
x_47 - 6y_47 <= 0
x_48 - 6y_48 <= 0
x_49 - 6y_49 <= 0
x_50 - 6y_50 <= 0
x_51 - 6y_51 <= 0
x_52 - 6y_52 <= 0
x_53 - 6y_53 <= 0
x_54 - 6y_54 <= 0
x_55 - 6y_55 <= 0
x_56 - 6y_56 <= 0
x_57 - 6y_57 <= 0
x_58 - 6y_58 <= 0
x_59 - 6y_59 <= 0
x_60 - 6y_60 <= 0
x_61 - 6y_61 <= 0
x_62 - 6y_62 <= 0
x_63 - 6y_63 <= 0
x_64 - 6y_64 <= 0
x_65 - 6y_65 <= 0
x_66 - 6y_66 <= 0
x_67 - 6y_67 <= 0
x_68 - 6y_68 <= 0
x_69 - 6y_69 <= 0
x_70 - 6y_70 <= 0
x_71 - 6y_71 <= 0
x_72 - 6y_72 <= 0
x_73 - 6y_73 <= 0
x_74 - 6y_74 <= 0
x_75 - 6y_75 <= 0
x_76 - 6y_76 <= 0
x_77 - 6y_77 <= 0
x_78 - 6y_78 <= 0
x_79 - 6y_79 <= 0
x_80 - 6y_80 <= 0
x_81 - 6y_81 <= 0
x_82 - 6y_82 <= 0
x_83 - 6y_83 <= 0
x_84 - 6y_84 <= 0
x_85 - 6y_85 <= 0
x_86 - 6y_86 <= 0
x_87 - 6y_87 <= 0
x_88 - 6y_88 <= 0
x_89 - 6y_89 <= 0
x_90 - 6y_90 <= 0
x_91 - 6y_91 <= 0
x_92 - 6y_92 <= 0
x_93 - 6y_93 <= 0
x_94 - 6y_94 <= 0
x_95 - 6y_95 <= 0
x_96 - 6y_96 <= 0
x_97 - 6y_97 <= 0
x_98 - 6y_98 <= 0
x_99 - 6y_99 <= 0
x_100 - 6y_100 <= 0
x_101 - 6y_101 <= 0
x_102 - 6y_102 <= 0
x_103 - 6y_103 <= 0
x_104 - 6y_104 <= 0
x_105 - 6y_105 <= 0
x_106 - 6y_106 <= 0
x_107 - 6y_107 <= 0
x_108 - 6y_108 <= 0
x_109 - 6y_109 <= 0
x_110 - 6y_110 <= 0
x_111 - 6y_111 <= 0
x_112 - 6y_112 <= 0
x_113 - 6y_113 <= 0
x_114 - 6y_114 <= 0
x_115 - 6y_115 <= 0
x_116 - 6y_116 <= 0
x_117 - 6y_117 <= 0
x_118 - 6y_118 <= 0
x_119 - 6y_119 <= 0
x_120 - 6y_120 <= 0
x_121 - 6y_121 <= 0
x_122 - 6y_122 <= 0
x_123 - 6y_123 <= 0
x_124 - 6y_124 <= 0
x_125 - 6y_125 <= 0
x_126 - 6y_126 <= 0
x_127 - 6y_127 <= 0
x_128 - 6y_128 <= 0
x_129 - 6y_129 <= 0
x_130 - 6y_130 <= 0
x_131 - 6y_131 <= 0
x_132 - 6y_132 <= 0
x_133 - 6y_133 <= 0
x_134 - 6y_134 <= 0
x_135 - 6y_135 <= 0
x_136 - 6y_136 <= 0
x_137 - 6y_137 <= 0
x_138 - 6y_138 <= 0
x_139 - 6y_139 <= 0
x_140 - 6y_140 <= 0
x_141 - 6y_141 <= 0
x_142 - 6y_142 <= 0
x_143 - 6y_143 <= 0
x_144 - 6y_144 <= 0
x_145 - 6y_145 <= 0
x_146 - 6y_146 <= 0
x_147 - 6y_147 <= 0
x_148 - 6y_148 <= 0
x_149 - 6y_149 <= 0
x_150 - 6y_150 <= 0
x_151 - 6y_151 <= 0
x_152 - 6y_152 <= 0
x_153 - 6y_153 <= 0
x_154 - 6y_154 <= 0
x_155 - 6y_155 <= 0
x_156 - 6y_156 <= 0
x_157 - 6y_157 <= 0
x_158 - 6y_158 <= 0
x_159 - 6y_159 <= 0
x_160 - 6y_160 <= 0
x_161 - 6y_161 <= 0
x_162 - 6y_162 <= 0
x_163 - 6y_163 <= 0
x_164 - 6y_164 <= 0
x_2 - x_93 +  x_3 - x_115 +  x_1 - x_157 = 0
x_4 - x_70 +  x_5 - x_160 = 0
x_7 - x_29 +  x_8 - x_140 +  x_6 - x_156 = 0
x_10 - x_66 +  x_9 - x_136 +  x_11 - x_108 = 0
x_15 - x_76 +  x_14 - x_30 +  x_13 - x_40 +  x_12 - x_88 = 0
x_18 - x_159 +  x_16 - x_28 +  x_17 - x_85 = 0
x_20 - x_137 +  x_21 - x_86 +  x_19 - x_119 = 0
x_24 - x_43 +  x_23 - x_128 +  x_22 - x_54 = 0
x_26 - x_163 +  x_25 - x_99 +  x_27 - x_38 = 0
x_30 - x_14 +  x_31 - x_102 +  x_28 - x_16 +  x_29 - x_7 = 0
x_33 - x_95 +  x_32 - x_104 - x_170 = 0
x_35 - x_77 +  x_34 - x_39 = 0
x_38 - x_27 +  x_36 - x_133 +  x_37 - x_83 = 0
x_40 - x_13 +  x_41 - x_98 +  x_39 - x_34 = 0
x_42 - x_50 +  x_45 - x_145 +  x_43 - x_24 +  x_44 - x_147 = 0
x_47 - x_84 +  x_46 - x_69 +  x_48 - x_138 = 0
x_51 - x_79 +  x_49 - x_127 +  x_50 - x_42 = 0
x_165 +  x_53 - x_97 +  x_52 - x_87 = 0
x_56 - x_123 +  x_54 - x_22 +  x_55 - x_144 = 0
x_58 - x_131 +  x_57 - x_116 = 0
x_61 - x_158 +  x_62 - x_141 +  x_60 - x_148 +  x_59 - x_142 = 0
x_64 - x_134 +  x_63 - x_81 +  x_65 - x_68 = 0
x_67 - x_92 +  x_66 - x_10 +  x_68 - x_65 = 0
x_69 - x_46 +  x_70 - x_4 +  x_71 - x_150 = 0
x_72 - x_94 +  x_73 - x_155 +  x_74 - x_164 = 0
x_75 - x_101 +  x_77 - x_35 +  x_76 - x_15 = 0
x_78 - x_146 +  x_79 - x_51 +  x_80 - x_126 = 0
x_81 - x_63 +  x_82 - x_120 +  x_83 - x_37 = 0
x_84 - x_47 +  x_85 - x_17 +  x_86 - x_21 = 0
x_87 - x_52 +  x_89 - x_113 +  x_88 - x_12 = 0
x_90 - x_117 +  x_91 - x_135 +  x_92 - x_67 = 0
x_93 - x_2 +  x_95 - x_33 +  x_94 - x_72 = 0
x_98 - x_41 +  x_97 - x_53 +  x_96 - x_125 = 0
x_100 - x_114 +  x_99 - x_25 - x_166 = 0
x_101 - x_75 +  x_102 - x_31 +  x_103 - x_161 = 0
x_107 - x_153 +  x_104 - x_32 +  x_106 - x_121 +  x_105 - x_143 = 0
x_109 - x_152 +  x_108 - x_11 - x_167 = 0
x_110 - x_124 +  x_113 - x_89 +  x_111 - x_139 +  x_112 - x_149 = 0
x_115 - x_3 - x_168 +  x_114 - x_100 = 0
x_118 - x_151 +  x_117 - x_90 +  x_116 - x_57 = 0
-x_169 +  x_119 - x_19 +  x_120 - x_82 = 0
x_122 - x_129 +  x_123 - x_56 +  x_121 - x_106 = 0
x_124 - x_110 +  x_125 - x_96 +  x_126 - x_80 = 0
x_127 - x_49 +  x_128 - x_23 = 0
x_129 - x_122 +  x_131 - x_58 +  x_130 - x_154 = 0
x_134 - x_64 +  x_132 - x_162 +  x_133 - x_36 +  x_135 - x_91 = 0
x_136 - x_9 +  x_138 - x_48 +  x_137 - x_20 = 0
x_141 - x_62 +  x_140 - x_8 +  x_139 - x_111 = 0
x_143 - x_105 +  x_145 - x_45 +  x_144 - x_55 +  x_142 - x_59 = 0
x_147 - x_44 +  x_146 - x_78 +  x_149 - x_112 +  x_148 - x_60 = 0
x_152 - x_109 +  x_151 - x_118 +  x_150 - x_71 = 0
x_155 - x_73 +  x_154 - x_130 +  x_153 - x_107 = 0
x_156 - x_6 +  x_157 - x_1 +  x_158 - x_61 = 0
x_159 - x_18 +  x_160 - x_5 +  x_161 - x_103 = 0
x_164 - x_74 +  x_162 - x_132 +  x_163 - x_26 = 0
Bounds
x_1 >= 0
x_2 >= 0
x_3 >= 0
x_4 >= 0
x_5 >= 0
x_6 >= 0
x_7 >= 0
x_8 >= 0
x_9 >= 0
x_10 >= 0
x_11 >= 0
x_12 >= 0
x_13 >= 0
x_14 >= 0
x_15 >= 0
x_16 >= 0
x_17 >= 0
x_18 >= 0
x_19 >= 0
x_20 >= 0
x_21 >= 0
x_22 >= 0
x_23 >= 0
x_24 >= 0
x_25 >= 0
x_26 >= 0
x_27 >= 0
x_28 >= 0
x_29 >= 0
x_30 >= 0
x_31 >= 0
x_32 >= 0
x_33 >= 0
x_34 >= 0
x_35 >= 0
x_36 >= 0
x_37 >= 0
x_38 >= 0
x_39 >= 0
x_40 >= 0
x_41 >= 0
x_42 >= 0
x_43 >= 0
x_44 >= 0
x_45 >= 0
x_46 >= 0
x_47 >= 0
x_48 >= 0
x_49 >= 0
x_50 >= 0
x_51 >= 0
x_52 >= 0
x_53 >= 0
x_54 >= 0
x_55 >= 0
x_56 >= 0
x_57 >= 0
x_58 >= 0
x_59 >= 0
x_60 >= 0
x_61 >= 0
x_62 >= 0
x_63 >= 0
x_64 >= 0
x_65 >= 0
x_66 >= 0
x_67 >= 0
x_68 >= 0
x_69 >= 0
x_70 >= 0
x_71 >= 0
x_72 >= 0
x_73 >= 0
x_74 >= 0
x_75 >= 0
x_76 >= 0
x_77 >= 0
x_78 >= 0
x_79 >= 0
x_80 >= 0
x_81 >= 0
x_82 >= 0
x_83 >= 0
x_84 >= 0
x_85 >= 0
x_86 >= 0
x_87 >= 0
x_88 >= 0
x_89 >= 0
x_90 >= 0
x_91 >= 0
x_92 >= 0
x_93 >= 0
x_94 >= 0
x_95 >= 0
x_96 >= 0
x_97 >= 0
x_98 >= 0
x_99 >= 0
x_100 >= 0
x_101 >= 0
x_102 >= 0
x_103 >= 0
x_104 >= 0
x_105 >= 0
x_106 >= 0
x_107 >= 0
x_108 >= 0
x_109 >= 0
x_110 >= 0
x_111 >= 0
x_112 >= 0
x_113 >= 0
x_114 >= 0
x_115 >= 0
x_116 >= 0
x_117 >= 0
x_118 >= 0
x_119 >= 0
x_120 >= 0
x_121 >= 0
x_122 >= 0
x_123 >= 0
x_124 >= 0
x_125 >= 0
x_126 >= 0
x_127 >= 0
x_128 >= 0
x_129 >= 0
x_130 >= 0
x_131 >= 0
x_132 >= 0
x_133 >= 0
x_134 >= 0
x_135 >= 0
x_136 >= 0
x_137 >= 0
x_138 >= 0
x_139 >= 0
x_140 >= 0
x_141 >= 0
x_142 >= 0
x_143 >= 0
x_144 >= 0
x_145 >= 0
x_146 >= 0
x_147 >= 0
x_148 >= 0
x_149 >= 0
x_150 >= 0
x_151 >= 0
x_152 >= 0
x_153 >= 0
x_154 >= 0
x_155 >= 0
x_156 >= 0
x_157 >= 0
x_158 >= 0
x_159 >= 0
x_160 >= 0
x_161 >= 0
x_162 >= 0
x_163 >= 0
x_164 >= 0
x_165 >= 0
x_166 >= 0
x_167 >= 0
x_168 >= 0
x_169 >= 0
x_170 >= 0
General
Binaries
y_1
y_2
y_3
y_4
y_5
y_6
y_7
y_8
y_9
y_10
y_11
y_12
y_13
y_14
y_15
y_16
y_17
y_18
y_19
y_20
y_21
y_22
y_23
y_24
y_25
y_26
y_27
y_28
y_29
y_30
y_31
y_32
y_33
y_34
y_35
y_36
y_37
y_38
y_39
y_40
y_41
y_42
y_43
y_44
y_45
y_46
y_47
y_48
y_49
y_50
y_51
y_52
y_53
y_54
y_55
y_56
y_57
y_58
y_59
y_60
y_61
y_62
y_63
y_64
y_65
y_66
y_67
y_68
y_69
y_70
y_71
y_72
y_73
y_74
y_75
y_76
y_77
y_78
y_79
y_80
y_81
y_82
y_83
y_84
y_85
y_86
y_87
y_88
y_89
y_90
y_91
y_92
y_93
y_94
y_95
y_96
y_97
y_98
y_99
y_100
y_101
y_102
y_103
y_104
y_105
y_106
y_107
y_108
y_109
y_110
y_111
y_112
y_113
y_114
y_115
y_116
y_117
y_118
y_119
y_120
y_121
y_122
y_123
y_124
y_125
y_126
y_127
y_128
y_129
y_130
y_131
y_132
y_133
y_134
y_135
y_136
y_137
y_138
y_139
y_140
y_141
y_142
y_143
y_144
y_145
y_146
y_147
y_148
y_149
y_150
y_151
y_152
y_153
y_154
y_155
y_156
y_157
y_158
y_159
y_160
y_161
y_162
y_163
y_164
End
