data/solutions/exact100kb/instance006.txt
VALUE 557
1 53
3 48
4 47
7 41
9 34
11 32
9 13
13 28
18 30
1 32
34 39
4 37
30 38
1 39
28 41
7 47
38 48
3 53

